
Gurobi 12.0.3 (linux64) logging started Mon Aug 18 01:58:03 2025

Set parameter LogFile to value "logs/instance-10.txt"
Gurobi Optimizer version 12.0.3 build v12.0.3rc0 (linux64 - "Ubuntu 24.04.3 LTS")

CPU model: Intel(R) Core(TM) i5-8250U CPU @ 1.60GHz, instruction set [SSE2|AVX|AVX2]
Thread count: 4 physical cores, 8 logical processors, using up to 8 threads

Non-default parameters:
TimeLimit  900

Optimize a model with 59900 rows, 20100 columns and 160805 nonzeros
Model fingerprint: 0x074cf325
Variable types: 19900 continuous, 200 integer (200 binary)
Coefficient statistics:
  Matrix range     [1e+00, 1e+00]
  Objective range  [1e+00, 1e+01]
  Bounds range     [1e+00, 1e+00]
  RHS range        [1e+00, 1e+00]
Found heuristic solution: objective -1609.000000
Found heuristic solution: objective 9.0000000
Presolve removed 31340 rows and 961 columns
Presolve time: 0.48s
Presolved: 28560 rows, 19139 columns, 87743 nonzeros
Variable types: 18939 continuous, 200 integer (200 binary)
Found heuristic solution: objective 109.0000000

Root relaxation: objective 2.570700e+04, 15344 iterations, 3.83 seconds (2.13 work units)

    Nodes    |    Current Node    |     Objective Bounds      |     Work
 Expl Unexpl |  Obj  Depth IntInf | Incumbent    BestBd   Gap | It/Node Time

     0     0 25707.0000    0  200  109.00000 25707.0000      -     -    4s
H    0     0                    1616.0000000 25707.0000  1491%     -    5s
H    0     0                    1644.0000000 25707.0000  1464%     -    5s
H    0     0                    1763.0000000 23748.5000  1247%     -   12s
     0     0 23748.5000    0  200 1763.00000 23748.5000  1247%     -   12s
     0     0 22445.2500    0  200 1763.00000 22445.2500  1173%     -   18s
     0     0 22077.0000    0  200 1763.00000 22077.0000  1152%     -   22s
     0     0 21521.5000    0  200 1763.00000 21521.5000  1121%     -   29s
     0     0 20341.0000    0  200 1763.00000 20341.0000  1054%     -   46s
     0     0 19497.6770    0  200 1763.00000 19497.6770  1006%     -   79s
H    0     0                    1935.0000000 18781.3727   871%     -  104s
     0     0 18781.3727    0  200 1935.00000 18781.3727   871%     -  105s
     0     0 18743.0833    0  200 1935.00000 18743.0833   869%     -  112s
     0     0 18740.4167    0  200 1935.00000 18740.4167   868%     -  113s
     0     0 18739.0833    0  200 1935.00000 18739.0833   868%     -  115s
     0     0 18739.0716    0  200 1935.00000 18739.0716   868%     -  115s
H    0     0                    2065.0000000 17797.8246   762%     -  169s
H    0     0                    2250.0000000 17797.8246   691%     -  169s
H    0     0                    2368.0000000 17797.8246   652%     -  169s
H    0     0                    2601.0000000 17797.8246   584%     -  169s
H    0     0                    2767.0000000 17797.8246   543%     -  169s
H    0     0                    2794.0000000 17797.8246   537%     -  169s
H    0     0                    2847.0000000 17797.8246   525%     -  169s
H    0     0                    2959.0000000 17797.8246   501%     -  169s
     0     0 17797.8246    0  200 2959.00000 17797.8246   501%     -  169s
H    0     0                    3169.0000000 16790.6353   430%     -  243s
H    0     0                    3494.0000000 16790.6353   381%     -  243s
H    0     0                    3792.0000000 16790.6353   343%     -  243s
     0     0 16790.6353    0  200 3792.00000 16790.6353   343%     -  243s
     0     0 15678.5223    0  200 3792.00000 15678.5223   313%     -  358s
     0     0 14832.3916    0  200 3792.00000 14832.3916   291%     -  500s
H    0     0                    3887.0000000 14082.2076   262%     -  678s
     0     0 14082.2076    0  200 3887.00000 14082.2076   262%     -  678s
H    0     0                    3990.0000000 13689.8540   243%     -  848s
H    0     0                    4025.0000000 13689.8540   240%     -  848s
H    0     0                    4034.0000000 13689.8540   239%     -  848s
H    0     0                    4042.0000000 13689.8540   239%     -  848s
H    0     0                    4162.0000000 13689.8540   229%     -  848s
H    0     0                    4175.0000000 13689.8540   228%     -  848s
H    0     0                    4243.0000000 13689.8540   223%     -  848s
H    0     0                    4274.0000000 13689.8540   220%     -  848s
     0     0 13689.8540    0  200 4274.00000 13689.8540   220%     -  848s
     0     0          -    0      4274.00000 13689.8540   220%     -  900s

Cutting planes:
  Gomory: 2
  MIR: 382
  Flow cover: 479
  RLT: 7038
  BQP: 7170

Explored 1 nodes (387079 simplex iterations) in 900.04 seconds (378.04 work units)
Thread count was 8 (of 8 available processors)

Solution count 10: 4274 4243 4175 ... 3792

Time limit reached
Best objective 4.274000000000e+03, best bound 1.368900000000e+04, gap 220.2854%
